\* The alignment Problem *\
Minimize
objective_function_to_minimize: - 0.637434299897 z_vars_0_1_0_1
 - 0.65706885687 z_vars_0_1_0_2 - 0.720590441954 z_vars_0_1_0_3
 - 1.0750614676 z_vars_0_1_0_4 + z_vars_0_1_1_2 + z_vars_0_1_1_3
 + 1.5 z_vars_0_1_1_4 + z_vars_0_1_2_3 + 1.5 z_vars_0_1_2_4
 + 1.5 z_vars_0_1_3_4 - z_vars_0_2_0_1 - 0.67781547236 z_vars_0_2_0_2
 - 0.831326039872 z_vars_0_2_0_3 - 1.19731419882 z_vars_0_2_0_4
 - 0.612579399781 z_vars_0_2_1_2 - 0.674431744461 z_vars_0_2_1_3
 - 1.05913041887 z_vars_0_2_1_4 + z_vars_0_2_2_3 + 1.5 z_vars_0_2_2_4
 + 1.5 z_vars_0_2_3_4 - 0.67781547236 z_vars_0_3_0_1 - 1 z_vars_0_3_0_2
 - 0.785102757319 z_vars_0_3_0_3 - 1.26344669792 z_vars_0_3_0_4
 - 0.510942767478 z_vars_0_3_1_2 + z_vars_0_3_1_3 + 1.5 z_vars_0_3_1_4
 - 0.608192920723 z_vars_0_3_2_3 - 0.989257075516 z_vars_0_3_2_4
 + 1.5 z_vars_0_3_3_4 - 0.705287188926 z_vars_0_4_0_1
 - 0.650135547292 z_vars_0_4_0_2 - 0.756367670703 z_vars_0_4_0_3
 - 1.14267568612 z_vars_0_4_0_4 + z_vars_0_4_1_2 + z_vars_0_4_1_3
 + 1.5 z_vars_0_4_1_4 + z_vars_0_4_2_3 + 1.5 z_vars_0_4_2_4
 + 1.5 z_vars_0_4_3_4 - 1.19731419882 z_vars_0_5_0_1
 - 1.26344669792 z_vars_0_5_0_2 - 1.38584021974 z_vars_0_5_0_3
 - 1.5 z_vars_0_5_0_4 + 1.5 z_vars_0_5_1_2 + 1.5 z_vars_0_5_1_3
 + 1.5 z_vars_0_5_1_4 + 1.5 z_vars_0_5_2_3 + 1.5 z_vars_0_5_2_4
 + 1.5 z_vars_0_5_3_4 - 0.467101502014 z_vars_1_2_0_1 + z_vars_1_2_0_2
 + z_vars_1_2_0_3 + 1.5 z_vars_1_2_0_4 - 0.62539128914 z_vars_1_2_1_2
 - 0.730976719796 z_vars_1_2_1_3 - 1.11138940947 z_vars_1_2_1_4
 + z_vars_1_2_2_3 + 1.5 z_vars_1_2_2_4 - 0.612558916399 z_vars_1_2_3_4
 + z_vars_1_3_0_1 - 0.385992279778 z_vars_1_3_0_2 + z_vars_1_3_0_3
 + 1.5 z_vars_1_3_0_4 - 0.526373553533 z_vars_1_3_1_2 + z_vars_1_3_1_3
 + 1.5 z_vars_1_3_1_4 - 0.662888025893 z_vars_1_3_2_3
 - 1.02460828594 z_vars_1_3_2_4 + 1.5 z_vars_1_3_3_4 + z_vars_1_4_0_1
 + z_vars_1_4_0_2 + z_vars_1_4_0_3 + 1.5 z_vars_1_4_0_4 + z_vars_1_4_1_2
 + z_vars_1_4_1_3 + 1.5 z_vars_1_4_1_4 + z_vars_1_4_2_3 + 1.5 z_vars_1_4_2_4
 + 1.5 z_vars_1_4_3_4 + 1.5 z_vars_1_5_0_1 + 1.5 z_vars_1_5_0_2
 + 1.5 z_vars_1_5_0_3 + 1.5 z_vars_1_5_0_4 + 1.5 z_vars_1_5_1_2
 + 1.5 z_vars_1_5_1_3 + 1.5 z_vars_1_5_1_4 + 1.5 z_vars_1_5_2_3
 + 1.5 z_vars_1_5_2_4 + 1.5 z_vars_1_5_3_4 - 0.612579399781 z_vars_2_3_0_1
 - 0.510942767478 z_vars_2_3_0_2 + z_vars_2_3_0_3 + 1.5 z_vars_2_3_0_4
 - z_vars_2_3_1_2 - 0.731354652459 z_vars_2_3_1_3
 - 1.16173503401 z_vars_2_3_1_4 - 0.727487217469 z_vars_2_3_2_3
 - 0.991377837063 z_vars_2_3_2_4 + 1.5 z_vars_2_3_3_4
 - 0.55256993162 z_vars_2_4_0_1 + z_vars_2_4_0_2 + z_vars_2_4_0_3
 + 1.5 z_vars_2_4_0_4 - 0.615342199307 z_vars_2_4_1_2
 - 0.759728275539 z_vars_2_4_1_3 - 1.176478867 z_vars_2_4_1_4 + z_vars_2_4_2_3
 + 1.5 z_vars_2_4_2_4 - 0.59505963935 z_vars_2_4_3_4
 - 1.05913041887 z_vars_2_5_0_1 + 1.5 z_vars_2_5_0_2 + 1.5 z_vars_2_5_0_3
 + 1.5 z_vars_2_5_0_4 - 1.16173503401 z_vars_2_5_1_2
 - 1.39985897196 z_vars_2_5_1_3 - 1.5375 z_vars_2_5_1_4 + 1.5 z_vars_2_5_2_3
 + 1.5 z_vars_2_5_2_4 - 0.624270406678 z_vars_2_5_3_4 + z_vars_3_4_0_1
 - 0.442763037304 z_vars_3_4_0_2 + z_vars_3_4_0_3 + 1.5 z_vars_3_4_0_4
 - 0.570930563134 z_vars_3_4_1_2 + z_vars_3_4_1_3 + 1.5 z_vars_3_4_1_4
 - 0.639864309728 z_vars_3_4_2_3 - 0.970910438152 z_vars_3_4_2_4
 + 1.5 z_vars_3_4_3_4 + 1.5 z_vars_3_5_0_1 - 0.989257075516 z_vars_3_5_0_2
 + 1.5 z_vars_3_5_0_3 + 1.5 z_vars_3_5_0_4 - 0.991377837063 z_vars_3_5_1_2
 + 1.5 z_vars_3_5_1_3 + 1.5 z_vars_3_5_1_4 - 1.29133989204 z_vars_3_5_2_3
 - 1.5375 z_vars_3_5_2_4 + 1.5 z_vars_3_5_3_4 + 1.5 z_vars_4_5_0_1
 + 1.5 z_vars_4_5_0_2 + 1.5 z_vars_4_5_0_3 + 1.5 z_vars_4_5_0_4
 + 1.5 z_vars_4_5_1_2 + 1.5 z_vars_4_5_1_3 + 1.5 z_vars_4_5_1_4
 + 1.5 z_vars_4_5_2_3 + 1.5 z_vars_4_5_2_4 + 1.5 z_vars_4_5_3_4
Subject To
singlematchi0: z_vars_0_1_0_1 + z_vars_0_1_0_2 + z_vars_0_1_0_3
 + z_vars_0_1_0_4 + z_vars_0_1_1_2 + z_vars_0_1_1_3 + z_vars_0_1_1_4
 + z_vars_0_1_2_3 + z_vars_0_1_2_4 + z_vars_0_1_3_4 + z_vars_0_2_0_1
 + z_vars_0_2_0_2 + z_vars_0_2_0_3 + z_vars_0_2_0_4 + z_vars_0_2_1_2
 + z_vars_0_2_1_3 + z_vars_0_2_1_4 + z_vars_0_2_2_3 + z_vars_0_2_2_4
 + z_vars_0_2_3_4 + z_vars_0_3_0_1 + z_vars_0_3_0_2 + z_vars_0_3_0_3
 + z_vars_0_3_0_4 + z_vars_0_3_1_2 + z_vars_0_3_1_3 + z_vars_0_3_1_4
 + z_vars_0_3_2_3 + z_vars_0_3_2_4 + z_vars_0_3_3_4 + z_vars_0_4_0_1
 + z_vars_0_4_0_2 + z_vars_0_4_0_3 + z_vars_0_4_0_4 + z_vars_0_4_1_2
 + z_vars_0_4_1_3 + z_vars_0_4_1_4 + z_vars_0_4_2_3 + z_vars_0_4_2_4
 + z_vars_0_4_3_4 + z_vars_0_5_0_1 + z_vars_0_5_0_2 + z_vars_0_5_0_3
 + z_vars_0_5_0_4 + z_vars_0_5_1_2 + z_vars_0_5_1_3 + z_vars_0_5_1_4
 + z_vars_0_5_2_3 + z_vars_0_5_2_4 + z_vars_0_5_3_4 <= 1
singlematchi1: z_vars_0_1_0_1 + z_vars_0_1_0_2 + z_vars_0_1_0_3
 + z_vars_0_1_0_4 + z_vars_0_1_1_2 + z_vars_0_1_1_3 + z_vars_0_1_1_4
 + z_vars_0_1_2_3 + z_vars_0_1_2_4 + z_vars_0_1_3_4 + z_vars_1_2_0_1
 + z_vars_1_2_0_2 + z_vars_1_2_0_3 + z_vars_1_2_0_4 + z_vars_1_2_1_2
 + z_vars_1_2_1_3 + z_vars_1_2_1_4 + z_vars_1_2_2_3 + z_vars_1_2_2_4
 + z_vars_1_2_3_4 + z_vars_1_3_0_1 + z_vars_1_3_0_2 + z_vars_1_3_0_3
 + z_vars_1_3_0_4 + z_vars_1_3_1_2 + z_vars_1_3_1_3 + z_vars_1_3_1_4
 + z_vars_1_3_2_3 + z_vars_1_3_2_4 + z_vars_1_3_3_4 + z_vars_1_4_0_1
 + z_vars_1_4_0_2 + z_vars_1_4_0_3 + z_vars_1_4_0_4 + z_vars_1_4_1_2
 + z_vars_1_4_1_3 + z_vars_1_4_1_4 + z_vars_1_4_2_3 + z_vars_1_4_2_4
 + z_vars_1_4_3_4 + z_vars_1_5_0_1 + z_vars_1_5_0_2 + z_vars_1_5_0_3
 + z_vars_1_5_0_4 + z_vars_1_5_1_2 + z_vars_1_5_1_3 + z_vars_1_5_1_4
 + z_vars_1_5_2_3 + z_vars_1_5_2_4 + z_vars_1_5_3_4 <= 1
singlematchi2: z_vars_0_2_0_1 + z_vars_0_2_0_2 + z_vars_0_2_0_3
 + z_vars_0_2_0_4 + z_vars_0_2_1_2 + z_vars_0_2_1_3 + z_vars_0_2_1_4
 + z_vars_0_2_2_3 + z_vars_0_2_2_4 + z_vars_0_2_3_4 + z_vars_1_2_0_1
 + z_vars_1_2_0_2 + z_vars_1_2_0_3 + z_vars_1_2_0_4 + z_vars_1_2_1_2
 + z_vars_1_2_1_3 + z_vars_1_2_1_4 + z_vars_1_2_2_3 + z_vars_1_2_2_4
 + z_vars_1_2_3_4 + z_vars_2_3_0_1 + z_vars_2_3_0_2 + z_vars_2_3_0_3
 + z_vars_2_3_0_4 + z_vars_2_3_1_2 + z_vars_2_3_1_3 + z_vars_2_3_1_4
 + z_vars_2_3_2_3 + z_vars_2_3_2_4 + z_vars_2_3_3_4 + z_vars_2_4_0_1
 + z_vars_2_4_0_2 + z_vars_2_4_0_3 + z_vars_2_4_0_4 + z_vars_2_4_1_2
 + z_vars_2_4_1_3 + z_vars_2_4_1_4 + z_vars_2_4_2_3 + z_vars_2_4_2_4
 + z_vars_2_4_3_4 + z_vars_2_5_0_1 + z_vars_2_5_0_2 + z_vars_2_5_0_3
 + z_vars_2_5_0_4 + z_vars_2_5_1_2 + z_vars_2_5_1_3 + z_vars_2_5_1_4
 + z_vars_2_5_2_3 + z_vars_2_5_2_4 + z_vars_2_5_3_4 <= 1
singlematchi3: z_vars_0_3_0_1 + z_vars_0_3_0_2 + z_vars_0_3_0_3
 + z_vars_0_3_0_4 + z_vars_0_3_1_2 + z_vars_0_3_1_3 + z_vars_0_3_1_4
 + z_vars_0_3_2_3 + z_vars_0_3_2_4 + z_vars_0_3_3_4 + z_vars_1_3_0_1
 + z_vars_1_3_0_2 + z_vars_1_3_0_3 + z_vars_1_3_0_4 + z_vars_1_3_1_2
 + z_vars_1_3_1_3 + z_vars_1_3_1_4 + z_vars_1_3_2_3 + z_vars_1_3_2_4
 + z_vars_1_3_3_4 + z_vars_2_3_0_1 + z_vars_2_3_0_2 + z_vars_2_3_0_3
 + z_vars_2_3_0_4 + z_vars_2_3_1_2 + z_vars_2_3_1_3 + z_vars_2_3_1_4
 + z_vars_2_3_2_3 + z_vars_2_3_2_4 + z_vars_2_3_3_4 + z_vars_3_4_0_1
 + z_vars_3_4_0_2 + z_vars_3_4_0_3 + z_vars_3_4_0_4 + z_vars_3_4_1_2
 + z_vars_3_4_1_3 + z_vars_3_4_1_4 + z_vars_3_4_2_3 + z_vars_3_4_2_4
 + z_vars_3_4_3_4 + z_vars_3_5_0_1 + z_vars_3_5_0_2 + z_vars_3_5_0_3
 + z_vars_3_5_0_4 + z_vars_3_5_1_2 + z_vars_3_5_1_3 + z_vars_3_5_1_4
 + z_vars_3_5_2_3 + z_vars_3_5_2_4 + z_vars_3_5_3_4 <= 1
singlematchi4: z_vars_0_4_0_1 + z_vars_0_4_0_2 + z_vars_0_4_0_3
 + z_vars_0_4_0_4 + z_vars_0_4_1_2 + z_vars_0_4_1_3 + z_vars_0_4_1_4
 + z_vars_0_4_2_3 + z_vars_0_4_2_4 + z_vars_0_4_3_4 + z_vars_1_4_0_1
 + z_vars_1_4_0_2 + z_vars_1_4_0_3 + z_vars_1_4_0_4 + z_vars_1_4_1_2
 + z_vars_1_4_1_3 + z_vars_1_4_1_4 + z_vars_1_4_2_3 + z_vars_1_4_2_4
 + z_vars_1_4_3_4 + z_vars_2_4_0_1 + z_vars_2_4_0_2 + z_vars_2_4_0_3
 + z_vars_2_4_0_4 + z_vars_2_4_1_2 + z_vars_2_4_1_3 + z_vars_2_4_1_4
 + z_vars_2_4_2_3 + z_vars_2_4_2_4 + z_vars_2_4_3_4 + z_vars_3_4_0_1
 + z_vars_3_4_0_2 + z_vars_3_4_0_3 + z_vars_3_4_0_4 + z_vars_3_4_1_2
 + z_vars_3_4_1_3 + z_vars_3_4_1_4 + z_vars_3_4_2_3 + z_vars_3_4_2_4
 + z_vars_3_4_3_4 + z_vars_4_5_0_1 + z_vars_4_5_0_2 + z_vars_4_5_0_3
 + z_vars_4_5_0_4 + z_vars_4_5_1_2 + z_vars_4_5_1_3 + z_vars_4_5_1_4
 + z_vars_4_5_2_3 + z_vars_4_5_2_4 + z_vars_4_5_3_4 <= 1
singlematchk0: z_vars_0_1_0_1 + z_vars_0_1_0_2 + z_vars_0_1_0_3
 + z_vars_0_1_0_4 + z_vars_0_2_0_1 + z_vars_0_2_0_2 + z_vars_0_2_0_3
 + z_vars_0_2_0_4 + z_vars_0_3_0_1 + z_vars_0_3_0_2 + z_vars_0_3_0_3
 + z_vars_0_3_0_4 + z_vars_0_4_0_1 + z_vars_0_4_0_2 + z_vars_0_4_0_3
 + z_vars_0_4_0_4 + z_vars_0_5_0_1 + z_vars_0_5_0_2 + z_vars_0_5_0_3
 + z_vars_0_5_0_4 + z_vars_1_2_0_1 + z_vars_1_2_0_2 + z_vars_1_2_0_3
 + z_vars_1_2_0_4 + z_vars_1_3_0_1 + z_vars_1_3_0_2 + z_vars_1_3_0_3
 + z_vars_1_3_0_4 + z_vars_1_4_0_1 + z_vars_1_4_0_2 + z_vars_1_4_0_3
 + z_vars_1_4_0_4 + z_vars_1_5_0_1 + z_vars_1_5_0_2 + z_vars_1_5_0_3
 + z_vars_1_5_0_4 + z_vars_2_3_0_1 + z_vars_2_3_0_2 + z_vars_2_3_0_3
 + z_vars_2_3_0_4 + z_vars_2_4_0_1 + z_vars_2_4_0_2 + z_vars_2_4_0_3
 + z_vars_2_4_0_4 + z_vars_2_5_0_1 + z_vars_2_5_0_2 + z_vars_2_5_0_3
 + z_vars_2_5_0_4 + z_vars_3_4_0_1 + z_vars_3_4_0_2 + z_vars_3_4_0_3
 + z_vars_3_4_0_4 + z_vars_3_5_0_1 + z_vars_3_5_0_2 + z_vars_3_5_0_3
 + z_vars_3_5_0_4 + z_vars_4_5_0_1 + z_vars_4_5_0_2 + z_vars_4_5_0_3
 + z_vars_4_5_0_4 <= 1
singlematchk1: z_vars_0_1_0_1 + z_vars_0_1_1_2 + z_vars_0_1_1_3
 + z_vars_0_1_1_4 + z_vars_0_2_0_1 + z_vars_0_2_1_2 + z_vars_0_2_1_3
 + z_vars_0_2_1_4 + z_vars_0_3_0_1 + z_vars_0_3_1_2 + z_vars_0_3_1_3
 + z_vars_0_3_1_4 + z_vars_0_4_0_1 + z_vars_0_4_1_2 + z_vars_0_4_1_3
 + z_vars_0_4_1_4 + z_vars_0_5_0_1 + z_vars_0_5_1_2 + z_vars_0_5_1_3
 + z_vars_0_5_1_4 + z_vars_1_2_0_1 + z_vars_1_2_1_2 + z_vars_1_2_1_3
 + z_vars_1_2_1_4 + z_vars_1_3_0_1 + z_vars_1_3_1_2 + z_vars_1_3_1_3
 + z_vars_1_3_1_4 + z_vars_1_4_0_1 + z_vars_1_4_1_2 + z_vars_1_4_1_3
 + z_vars_1_4_1_4 + z_vars_1_5_0_1 + z_vars_1_5_1_2 + z_vars_1_5_1_3
 + z_vars_1_5_1_4 + z_vars_2_3_0_1 + z_vars_2_3_1_2 + z_vars_2_3_1_3
 + z_vars_2_3_1_4 + z_vars_2_4_0_1 + z_vars_2_4_1_2 + z_vars_2_4_1_3
 + z_vars_2_4_1_4 + z_vars_2_5_0_1 + z_vars_2_5_1_2 + z_vars_2_5_1_3
 + z_vars_2_5_1_4 + z_vars_3_4_0_1 + z_vars_3_4_1_2 + z_vars_3_4_1_3
 + z_vars_3_4_1_4 + z_vars_3_5_0_1 + z_vars_3_5_1_2 + z_vars_3_5_1_3
 + z_vars_3_5_1_4 + z_vars_4_5_0_1 + z_vars_4_5_1_2 + z_vars_4_5_1_3
 + z_vars_4_5_1_4 <= 1
singlematchk2: z_vars_0_1_0_2 + z_vars_0_1_1_2 + z_vars_0_1_2_3
 + z_vars_0_1_2_4 + z_vars_0_2_0_2 + z_vars_0_2_1_2 + z_vars_0_2_2_3
 + z_vars_0_2_2_4 + z_vars_0_3_0_2 + z_vars_0_3_1_2 + z_vars_0_3_2_3
 + z_vars_0_3_2_4 + z_vars_0_4_0_2 + z_vars_0_4_1_2 + z_vars_0_4_2_3
 + z_vars_0_4_2_4 + z_vars_0_5_0_2 + z_vars_0_5_1_2 + z_vars_0_5_2_3
 + z_vars_0_5_2_4 + z_vars_1_2_0_2 + z_vars_1_2_1_2 + z_vars_1_2_2_3
 + z_vars_1_2_2_4 + z_vars_1_3_0_2 + z_vars_1_3_1_2 + z_vars_1_3_2_3
 + z_vars_1_3_2_4 + z_vars_1_4_0_2 + z_vars_1_4_1_2 + z_vars_1_4_2_3
 + z_vars_1_4_2_4 + z_vars_1_5_0_2 + z_vars_1_5_1_2 + z_vars_1_5_2_3
 + z_vars_1_5_2_4 + z_vars_2_3_0_2 + z_vars_2_3_1_2 + z_vars_2_3_2_3
 + z_vars_2_3_2_4 + z_vars_2_4_0_2 + z_vars_2_4_1_2 + z_vars_2_4_2_3
 + z_vars_2_4_2_4 + z_vars_2_5_0_2 + z_vars_2_5_1_2 + z_vars_2_5_2_3
 + z_vars_2_5_2_4 + z_vars_3_4_0_2 + z_vars_3_4_1_2 + z_vars_3_4_2_3
 + z_vars_3_4_2_4 + z_vars_3_5_0_2 + z_vars_3_5_1_2 + z_vars_3_5_2_3
 + z_vars_3_5_2_4 + z_vars_4_5_0_2 + z_vars_4_5_1_2 + z_vars_4_5_2_3
 + z_vars_4_5_2_4 <= 1
singlematchk3: z_vars_0_1_0_3 + z_vars_0_1_1_3 + z_vars_0_1_2_3
 + z_vars_0_1_3_4 + z_vars_0_2_0_3 + z_vars_0_2_1_3 + z_vars_0_2_2_3
 + z_vars_0_2_3_4 + z_vars_0_3_0_3 + z_vars_0_3_1_3 + z_vars_0_3_2_3
 + z_vars_0_3_3_4 + z_vars_0_4_0_3 + z_vars_0_4_1_3 + z_vars_0_4_2_3
 + z_vars_0_4_3_4 + z_vars_0_5_0_3 + z_vars_0_5_1_3 + z_vars_0_5_2_3
 + z_vars_0_5_3_4 + z_vars_1_2_0_3 + z_vars_1_2_1_3 + z_vars_1_2_2_3
 + z_vars_1_2_3_4 + z_vars_1_3_0_3 + z_vars_1_3_1_3 + z_vars_1_3_2_3
 + z_vars_1_3_3_4 + z_vars_1_4_0_3 + z_vars_1_4_1_3 + z_vars_1_4_2_3
 + z_vars_1_4_3_4 + z_vars_1_5_0_3 + z_vars_1_5_1_3 + z_vars_1_5_2_3
 + z_vars_1_5_3_4 + z_vars_2_3_0_3 + z_vars_2_3_1_3 + z_vars_2_3_2_3
 + z_vars_2_3_3_4 + z_vars_2_4_0_3 + z_vars_2_4_1_3 + z_vars_2_4_2_3
 + z_vars_2_4_3_4 + z_vars_2_5_0_3 + z_vars_2_5_1_3 + z_vars_2_5_2_3
 + z_vars_2_5_3_4 + z_vars_3_4_0_3 + z_vars_3_4_1_3 + z_vars_3_4_2_3
 + z_vars_3_4_3_4 + z_vars_3_5_0_3 + z_vars_3_5_1_3 + z_vars_3_5_2_3
 + z_vars_3_5_3_4 + z_vars_4_5_0_3 + z_vars_4_5_1_3 + z_vars_4_5_2_3
 + z_vars_4_5_3_4 <= 1
Bounds
z_vars_0_1_0_1 <= 1
z_vars_0_1_0_2 <= 1
z_vars_0_1_0_3 <= 1
z_vars_0_1_0_4 <= 1
z_vars_0_1_1_2 <= 1
z_vars_0_1_1_3 <= 1
z_vars_0_1_1_4 <= 1
z_vars_0_1_2_3 <= 1
z_vars_0_1_2_4 <= 1
z_vars_0_1_3_4 <= 1
z_vars_0_2_0_1 <= 1
z_vars_0_2_0_2 <= 1
z_vars_0_2_0_3 <= 1
z_vars_0_2_0_4 <= 1
z_vars_0_2_1_2 <= 1
z_vars_0_2_1_3 <= 1
z_vars_0_2_1_4 <= 1
z_vars_0_2_2_3 <= 1
z_vars_0_2_2_4 <= 1
z_vars_0_2_3_4 <= 1
z_vars_0_3_0_1 <= 1
z_vars_0_3_0_2 <= 1
z_vars_0_3_0_3 <= 1
z_vars_0_3_0_4 <= 1
z_vars_0_3_1_2 <= 1
z_vars_0_3_1_3 <= 1
z_vars_0_3_1_4 <= 1
z_vars_0_3_2_3 <= 1
z_vars_0_3_2_4 <= 1
z_vars_0_3_3_4 <= 1
z_vars_0_4_0_1 <= 1
z_vars_0_4_0_2 <= 1
z_vars_0_4_0_3 <= 1
z_vars_0_4_0_4 <= 1
z_vars_0_4_1_2 <= 1
z_vars_0_4_1_3 <= 1
z_vars_0_4_1_4 <= 1
z_vars_0_4_2_3 <= 1
z_vars_0_4_2_4 <= 1
z_vars_0_4_3_4 <= 1
z_vars_0_5_0_1 <= 1
z_vars_0_5_0_2 <= 1
z_vars_0_5_0_3 <= 1
z_vars_0_5_0_4 <= 1
z_vars_0_5_1_2 <= 1
z_vars_0_5_1_3 <= 1
z_vars_0_5_1_4 <= 1
z_vars_0_5_2_3 <= 1
z_vars_0_5_2_4 <= 1
z_vars_0_5_3_4 <= 1
z_vars_1_2_0_1 <= 1
z_vars_1_2_0_2 <= 1
z_vars_1_2_0_3 <= 1
z_vars_1_2_0_4 <= 1
z_vars_1_2_1_2 <= 1
z_vars_1_2_1_3 <= 1
z_vars_1_2_1_4 <= 1
z_vars_1_2_2_3 <= 1
z_vars_1_2_2_4 <= 1
z_vars_1_2_3_4 <= 1
z_vars_1_3_0_1 <= 1
z_vars_1_3_0_2 <= 1
z_vars_1_3_0_3 <= 1
z_vars_1_3_0_4 <= 1
z_vars_1_3_1_2 <= 1
z_vars_1_3_1_3 <= 1
z_vars_1_3_1_4 <= 1
z_vars_1_3_2_3 <= 1
z_vars_1_3_2_4 <= 1
z_vars_1_3_3_4 <= 1
z_vars_1_4_0_1 <= 1
z_vars_1_4_0_2 <= 1
z_vars_1_4_0_3 <= 1
z_vars_1_4_0_4 <= 1
z_vars_1_4_1_2 <= 1
z_vars_1_4_1_3 <= 1
z_vars_1_4_1_4 <= 1
z_vars_1_4_2_3 <= 1
z_vars_1_4_2_4 <= 1
z_vars_1_4_3_4 <= 1
z_vars_1_5_0_1 <= 1
z_vars_1_5_0_2 <= 1
z_vars_1_5_0_3 <= 1
z_vars_1_5_0_4 <= 1
z_vars_1_5_1_2 <= 1
z_vars_1_5_1_3 <= 1
z_vars_1_5_1_4 <= 1
z_vars_1_5_2_3 <= 1
z_vars_1_5_2_4 <= 1
z_vars_1_5_3_4 <= 1
z_vars_2_3_0_1 <= 1
z_vars_2_3_0_2 <= 1
z_vars_2_3_0_3 <= 1
z_vars_2_3_0_4 <= 1
z_vars_2_3_1_2 <= 1
z_vars_2_3_1_3 <= 1
z_vars_2_3_1_4 <= 1
z_vars_2_3_2_3 <= 1
z_vars_2_3_2_4 <= 1
z_vars_2_3_3_4 <= 1
z_vars_2_4_0_1 <= 1
z_vars_2_4_0_2 <= 1
z_vars_2_4_0_3 <= 1
z_vars_2_4_0_4 <= 1
z_vars_2_4_1_2 <= 1
z_vars_2_4_1_3 <= 1
z_vars_2_4_1_4 <= 1
z_vars_2_4_2_3 <= 1
z_vars_2_4_2_4 <= 1
z_vars_2_4_3_4 <= 1
z_vars_2_5_0_1 <= 1
z_vars_2_5_0_2 <= 1
z_vars_2_5_0_3 <= 1
z_vars_2_5_0_4 <= 1
z_vars_2_5_1_2 <= 1
z_vars_2_5_1_3 <= 1
z_vars_2_5_1_4 <= 1
z_vars_2_5_2_3 <= 1
z_vars_2_5_2_4 <= 1
z_vars_2_5_3_4 <= 1
z_vars_3_4_0_1 <= 1
z_vars_3_4_0_2 <= 1
z_vars_3_4_0_3 <= 1
z_vars_3_4_0_4 <= 1
z_vars_3_4_1_2 <= 1
z_vars_3_4_1_3 <= 1
z_vars_3_4_1_4 <= 1
z_vars_3_4_2_3 <= 1
z_vars_3_4_2_4 <= 1
z_vars_3_4_3_4 <= 1
z_vars_3_5_0_1 <= 1
z_vars_3_5_0_2 <= 1
z_vars_3_5_0_3 <= 1
z_vars_3_5_0_4 <= 1
z_vars_3_5_1_2 <= 1
z_vars_3_5_1_3 <= 1
z_vars_3_5_1_4 <= 1
z_vars_3_5_2_3 <= 1
z_vars_3_5_2_4 <= 1
z_vars_3_5_3_4 <= 1
z_vars_4_5_0_1 <= 1
z_vars_4_5_0_2 <= 1
z_vars_4_5_0_3 <= 1
z_vars_4_5_0_4 <= 1
z_vars_4_5_1_2 <= 1
z_vars_4_5_1_3 <= 1
z_vars_4_5_1_4 <= 1
z_vars_4_5_2_3 <= 1
z_vars_4_5_2_4 <= 1
z_vars_4_5_3_4 <= 1
End
